(declare-const |phi_x__VERIFIER_LA_old_tmp0:9| Int)
(declare-const |phi_x__VERIFIER_LA_tmp0:11| Int)
(declare-const |phi_x:12| Int)
(declare-const |phi___VERIFIER_LA_iterations0:10| Int)
(assert (and (= (+ (- |phi_x:12|) 268435454) 0)
               (= (- |phi_x__VERIFIER_LA_tmp0:11|) 0)
               (= (+ (- |phi___VERIFIER_LA_iterations0:10|) 134217727) 0)
               (= (- |phi_x__VERIFIER_LA_old_tmp0:9|) 0)
               (not (= (mod |phi_x:12| 2) 0))))
(check-sat)
